g3 6 1 0	# problem tmp
 13 15 1 0 6	# vars, constraints, objectives, ranges, eqns
 10 1 0 3	# nonlinear constrs, objs; ccons: lin, nonlin
 0 0	# network constraints: nonlinear, linear
 13 2 2	# nonlinear vars in constraints, objectives, both
 0 0 0 1	# linear network variables; functions; arith, flags
 0 0 0 0 0	# discrete variables: binary, integer, nonlinear (b,c,o)
 54 2	# nonzeros in Jacobian, gradients
 0 0	# max name lengths: constraints, variables
 0 0 0 0 0	# common exprs: b,c,o,c1,o1
C0
o16
o5
v7
n2
C1
o2
o3
o2
n2
o1
v4
v2
o5
v0
n2
v10
C2
o2
o3
o2
n2
o1
v7
v3
o5
v1
n2
v10
C3
o2
o3
o2
n2
o1
v5
v2
o5
v0
n2
v11
C4
o2
o3
o2
n2
o1
v8
v3
o5
v1
n2
v11
C5
o2
o3
o2
n2
o1
v6
v2
o5
v0
n2
v12
C6
o2
o3
o2
n2
o1
v9
v3
o5
v1
n2
v12
C7
o54
3
o16
o2
o5
o1
v4
v2
n2
o5
v1
n2
o16
o2
o5
o1
v7
v3
n2
o5
v0
n2
o2
o5
v1
n2
o5
v0
n2
C8
o54
3
o16
o2
o5
o1
v5
v2
n2
o5
v1
n2
o16
o2
o5
o1
v8
v3
n2
o5
v0
n2
o2
o5
v1
n2
o5
v0
n2
C9
o54
3
o16
o2
o5
o1
v6
v2
n2
o5
v1
n2
o16
o2
o5
o1
v9
v3
n2
o5
v0
n2
o2
o5
v1
n2
o5
v0
n2
C10
n0
C11
n0
C12
n0
C13
n0
C14
n0
O0 1
o2
o2
n3.141592654
v0
v1
x13
0 1
1 1
2 0
3 0
4 -1.000000000000073
5 0.2425356250359245
6 0
7 0
8 0.9701425001468117
9 -1.000000000026019
10 0.5000000393303194
11 0.5153882031999911
12 0.4999999999777709
r
1 0
4 -1
4 0
4 0.25
4 1
4 0
4 -1
5 1 11
5 1 12
5 1 13
1 0.75
1 0
2 0
2 0
1 0
b
3
3
3
3
3
3
3
3
3
2 -1
2 0
2 0
2 0
k12
6
12
20
28
32
36
38
41
45
48
50
52
J0 2
4 -1
7 0
J1 4
0 0
2 0
4 0
10 0
J2 4
1 0
3 0
7 2
10 0
J3 4
0 0
2 0
5 0
11 0
J4 4
1 0
3 0
8 0
11 0
J5 4
0 0
2 0
6 0
12 0
J6 4
1 0
3 0
9 0
12 0
J7 6
0 0
1 0
2 0
3 0
4 0
7 0
J8 6
0 0
1 0
2 0
3 0
5 0
8 0
J9 6
0 0
1 0
2 0
3 0
6 0
9 0
J10 2
5 0.25
8 1
J11 2
2 -1
4 1
J12 2
2 -1
5 1
J13 2
3 -1
8 1
J14 2
3 -1
9 1
G0 2
0 0
1 0
